clingo version 5.6.2
Reading from ...etition/0058-graph_colouring-150-0.asp ...
Solving...
UNSATISFIABLE

Models       : 0
Calls        : 1
Time         : 262.015s (Solving: 261.77s 1st Model: 0.00s Unsat: 261.77s)
CPU Time     : 261.823s

Choices      : 5988645 
Conflicts    : 5561306  (Analyzed: 5561305)
Restarts     : 11832    (Average: 470.02 Last: 93)
Problems     : 1        (Average Length: 0.00 Splits: 0)
Lemmas       : 5561305  (Deleted: 5480963)
  Binary     : 327      (Ratio:   0.01%)
  Ternary    : 2522     (Ratio:   0.05%)
  Conflict   : 5561305  (Average Length:   28.4 Ratio: 100.00%) 
  Loop       : 0        (Average Length:    0.0 Ratio:   0.00%) 
  Other      : 0        (Average Length:    0.0 Ratio:   0.00%) 
Backjumps    : 5561305  (Average:  1.06 Max:  11 Sum: 5913398)
  Executed   : 5561305  (Average:  1.06 Max:  11 Sum: 5913398 Ratio: 100.00%)
  Bounded    : 0        (Average:  0.00 Max:   0 Sum:      0 Ratio:   0.00%)

Rules        : 22400   
Atoms        : 4058    
Bodies       : 1480    
Equivalences : 2926     (Atom=Atom: 16 Body=Body: 727 Other: 2183)
Tight        : Yes
Variables    : 885      (Eliminated:    0 Frozen:    0)
Constraints  : 9023     (Binary:  90.3% Ternary:   0.0% Other:   9.6%)

